NAME : a280
COMMENT : Tour length 3741
TYPE : TOUR
DIMENSION : 280
TOUR_SECTION
1
2
242
243
244
245
240
239
238
231
232
233
234
235
236
237
246
247
250
251
230
229
228
227
226
225
224
223
222
219
218
215
214
211
210
207
208
209
252
253
254
255
256
257
258
259
260
261
262
263
264
265
266
138
137
136
135
134
270
269
268
267
140
139
148
141
142
143
144
145
146
147
149
150
178
151
152
156
153
155
154
129
128
21
20
19
18
17
16
271
272
273
274
275
276
277
4
279
278
248
249
206
205
204
203
202
200
199
198
197
194
195
196
201
217
216
213
212
241
280
3
5
6
7
8
9
15
13
12
11
10
220
221
192
191
190
189
188
165
164
163
162
161
175
160
159
158
157
119
120
121
122
123
124
125
30
31
32
28
27
26
22
25
23
24
14
133
132
131
130
127
126
29
33
34
35
36
37
50
49
48
47
46
45
44
57
56
55
54
53
52
51
38
39
40
41
42
43
60
61
118
117
115
114
111
110
108
104
103
102
101
100
168
167
166
187
185
184
183
182
181
176
177
116
86
85
84
83
82
81
80
91
92
93
94
95
96
97
98
99
169
170
171
172
173
106
105
109
89
88
112
113
87
65
64
63
62
107
174
180
179
193
186
90
79
76
75
74
73
72
71
70
67
66
77
78
59
58
68
69
1
-1
EOF